<number of tasks>
100

<cycle time>
1000

<order strength>
0.203


<task times>
1 521
2 577
3 706
4 475
5 384
6 305
7 625
8 458
9 579
10 497
11 495
12 636
13 554
14 417
15 469
16 351
17 350
18 299
19 583
20 617
21 712
22 456
23 527
24 495
25 525
26 488
27 539
28 694
29 572
30 684
31 561
32 313
33 620
34 767
35 514
36 559
37 567
38 681
39 489
40 533
41 331
42 547
43 557
44 443
45 577
46 570
47 706
48 377
49 715
50 723
51 523
52 388
53 578
54 395
55 620
56 623
57 469
58 382
59 776
60 434
61 427
62 414
63 536
64 520
65 515
66 292
67 650
68 569
69 544
70 74
71 477
72 363
73 688
74 662
75 258
76 541
77 738
78 214
79 503
80 473
81 588
82 458
83 540
84 591
85 418
86 440
87 633
88 399
89 443
90 455
91 552
92 339
93 659
94 561
95 528
96 596
97 601
98 520
99 495
100 362

<precedence relations>
1,62
2,62
3,16
4,16
5,16
6,16
7,16
8,17
9,19
9,21
10,13
10,14
11,20
12,15
12,18
13,62
14,62
15,62
16,24
16,25
16,26
16,27
16,28
16,29
16,30
17,31
19,23
19,33
19,34
20,22
21,32
22,62
23,62
24,38
25,35
27,37
34,36
35,62
36,39
36,43
36,44
37,39
37,40
37,42
38,41
38,45
39,47
40,48
41,49
42,50
44,46
44,51
45,52
46,62
47,55
48,56
49,57
50,58
51,54
51,59
51,61
52,53
52,60
53,62
54,62
55,64
56,65
57,65
58,63
59,68
59,69
59,70
61,66
61,67
61,93
62,71
62,72
62,73
62,74
62,75
63,80
64,79
66,76
67,77
68,78
68,81
68,82
75,89
75,92
76,83
77,84
78,85
79,86
80,89
82,87
82,88
83,90
84,91
85,92
88,94
89,93
89,95
90,96
91,97
93,98
93,99
94,100

<end>
